\ Model Rmain
\ LP format - for model browsing. Use MPS format to capture full model detail.
Minimize
  x[0] + x[1] + x[2] + x[3] + x[4] + x[5] + x[6] + x[7] + x[8] + x[9]
   + x[10] + x[11] + x[12] + x[13] + x[14] + x[15]
Subject To
 row0: - 0.1775280898876404 x[0] + 0.501123595505618 x[1] <= 10
 row1: - 0.1775280898876404 x[2] + 0.501123595505618 x[3] <= 14
 row2: - 0.1775280898876404 x[4] + 0.501123595505618 x[5] <= 10
 row3: - 0.1775280898876404 x[6] + 0.501123595505618 x[7] <= 5
 row4: - 0.1775280898876404 x[8] + 0.501123595505618 x[9] <= 9
 row5: - 0.1775280898876404 x[10] + 0.501123595505618 x[11] <= 13
 row6: - 0.1775280898876404 x[12] + 0.501123595505618 x[13] <= 8
 row7: - 0.1775280898876404 x[14] + 0.501123595505618 x[15] <= 15
 equal0: = -0
 equal1: = -0
 equal2: = -0
 equal3: - 0.0706122964272188 x[6] + 0.1993233177629088 x[7]
   = 1.98876404494382
 equal4: - 0.0223406135588941 x[8] + 0.0630627446029542 x[9]
   = 1.132584269662921
 equal5: = -0
 equal6: = -0
 equal7: = -0
Bounds
 x[0] >= 15
 x[1] >= 5
 x[2] >= 1
 x[3] >= 11
 x[4] >= 17
 x[5] >= 18
 x[6] >= 17
 x[7] >= 16
 x[8] >= -14
 x[9] >= 13
 x[10] >= 13
 x[11] >= -12
 x[12] >= -19
 x[13] >= -13
 x[14] >= 10
 x[15] >= 5
End
